0000000000000000
0000000000000000
0000111100000000
0001111110000000
0011111111000000
0000000011000000
0000000001100000
0000000001100000
0000000001100000
0000000001100000
0000000011110000
0001111110110000
0011111100110000
0111111000001000
0000000000000000
0000000000000000
